db/data/1014031866271043732963621898292333588.z3.out
sat
-------------------
2301.807467846
